NAME : 20-5-2-i.14544.tour
COMMENT : Length = 14544
COMMENT : Found by LKH-3 [Keld Helsgaun] Tue Dec 17 14:06:59 2024
TYPE : TOUR
DIMENSION : 30
TOUR_SECTION
1
11
9
15
8
6
26
2
14
7
12
27
3
28
4
10
13
29
5
25
19
22
24
17
20
23
18
21
16
30
-1
EOF
